\ LP format - for model browsing. Use MPS format to capture full model detail.
Minimize
  p0 + p1 + p2 + p3 + p4 + p5 + p6
Subject To
 R0: x0,1_1 + x0,2_1 + x0,3_1 + x0,4_1 + x0,5_1 + x0,6_1 + x1,2_1 + x1,3_1
   + x1,4_1 + x1,5_1 + x1,6_1 + x2,3_1 + x2,4_1 + x2,5_1 + x2,6_1 + x3,4_1
   + x3,5_1 + x3,6_1 + x4,5_1 + x4,6_1 + x5,6_1 = 1
 R1: x0,1_3 + x0,2_3 + x0,3_3 + x0,4_3 + x0,5_3 + x0,6_3 + x1,2_3 + x1,3_3
   + x1,4_3 + x1,5_3 + x1,6_3 + x2,3_3 + x2,4_3 + x2,5_3 + x2,6_3 + x3,4_3
   + x3,5_3 + x3,6_3 + x4,5_3 + x4,6_3 + x5,6_3 = 1
 R2: x0,1_4 + x0,2_4 + x0,3_4 + x0,4_4 + x0,5_4 + x0,6_4 + x1,2_4 + x1,3_4
   + x1,4_4 + x1,5_4 + x1,6_4 + x2,3_4 + x2,4_4 + x2,5_4 + x2,6_4 + x3,4_4
   + x3,5_4 + x3,6_4 + x4,5_4 + x4,6_4 + x5,6_4 = 1
 R3: x0,1_5 + x0,2_5 + x0,3_5 + x0,4_5 + x0,5_5 + x0,6_5 + x1,2_5 + x1,3_5
   + x1,4_5 + x1,5_5 + x1,6_5 + x2,3_5 + x2,4_5 + x2,5_5 + x2,6_5 + x3,4_5
   + x3,5_5 + x3,6_5 + x4,5_5 + x4,6_5 + x5,6_5 = 1
 R4: x0,1_9 + x0,2_9 + x0,3_9 + x0,4_9 + x0,5_9 + x0,6_9 + x1,2_9 + x1,3_9
   + x1,4_9 + x1,5_9 + x1,6_9 + x2,3_9 + x2,4_9 + x2,5_9 + x2,6_9 + x3,4_9
   + x3,5_9 + x3,6_9 + x4,5_9 + x4,6_9 + x5,6_9 = 1
 R5: x0,1_14 + x0,2_14 + x0,3_14 + x0,4_14 + x0,5_14 + x0,6_14 + x1,2_14
   + x1,3_14 + x1,4_14 + x1,5_14 + x1,6_14 + x2,3_14 + x2,4_14 + x2,5_14
   + x2,6_14 + x3,4_14 + x3,5_14 + x3,6_14 + x4,5_14 + x4,6_14 + x5,6_14
   = 1
 R6: x0,1_17 + x0,2_17 + x0,3_17 + x0,4_17 + x0,5_17 + x0,6_17 + x1,2_17
   + x1,3_17 + x1,4_17 + x1,5_17 + x1,6_17 + x2,3_17 + x2,4_17 + x2,5_17
   + x2,6_17 + x3,4_17 + x3,5_17 + x3,6_17 + x4,5_17 + x4,6_17 + x5,6_17
   = 1
 R7: x0,1_19 + x0,2_19 + x0,3_19 + x0,4_19 + x0,5_19 + x0,6_19 + x1,2_19
   + x1,3_19 + x1,4_19 + x1,5_19 + x1,6_19 + x2,3_19 + x2,4_19 + x2,5_19
   + x2,6_19 + x3,4_19 + x3,5_19 + x3,6_19 + x4,5_19 + x4,6_19 + x5,6_19
   = 1
 R8: x0,1_21 + x0,2_21 + x0,3_21 + x0,4_21 + x0,5_21 + x0,6_21 + x1,2_21
   + x1,3_21 + x1,4_21 + x1,5_21 + x1,6_21 + x2,3_21 + x2,4_21 + x2,5_21
   + x2,6_21 + x3,4_21 + x3,5_21 + x3,6_21 + x4,5_21 + x4,6_21 + x5,6_21
   = 1
 R9: x0,1_27 + x0,2_27 + x0,3_27 + x0,4_27 + x0,5_27 + x0,6_27 + x1,2_27
   + x1,3_27 + x1,4_27 + x1,5_27 + x1,6_27 + x2,3_27 + x2,4_27 + x2,5_27
   + x2,6_27 + x3,4_27 + x3,5_27 + x3,6_27 + x4,5_27 + x4,6_27 + x5,6_27
   = 1
 R10: x0,1_28 + x0,2_28 + x0,3_28 + x0,4_28 + x0,5_28 + x0,6_28 + x1,2_28
   + x1,3_28 + x1,4_28 + x1,5_28 + x1,6_28 + x2,3_28 + x2,4_28 + x2,5_28
   + x2,6_28 + x3,4_28 + x3,5_28 + x3,6_28 + x4,5_28 + x4,6_28 + x5,6_28
   = 1
 R11: x0,1_30 + x0,2_30 + x0,3_30 + x0,4_30 + x0,5_30 + x0,6_30 + x1,2_30
   + x1,3_30 + x1,4_30 + x1,5_30 + x1,6_30 + x2,3_30 + x2,4_30 + x2,5_30
   + x2,6_30 + x3,4_30 + x3,5_30 + x3,6_30 + x4,5_30 + x4,6_30 + x5,6_30
   = 1
 R12: x0,1_34 + x0,2_34 + x0,3_34 + x0,4_34 + x0,5_34 + x0,6_34 + x1,2_34
   + x1,3_34 + x1,4_34 + x1,5_34 + x1,6_34 + x2,3_34 + x2,4_34 + x2,5_34
   + x2,6_34 + x3,4_34 + x3,5_34 + x3,6_34 + x4,5_34 + x4,6_34 + x5,6_34
   = 1
 R13: x0,1_35 + x0,2_35 + x0,3_35 + x0,4_35 + x0,5_35 + x0,6_35 + x1,2_35
   + x1,3_35 + x1,4_35 + x1,5_35 + x1,6_35 + x2,3_35 + x2,4_35 + x2,5_35
   + x2,6_35 + x3,4_35 + x3,5_35 + x3,6_35 + x4,5_35 + x4,6_35 + x5,6_35
   = 1
 R14: x0,1_1 + x0,1_3 + x0,1_4 + x0,1_5 + x0,1_9 + x0,1_14 + x0,1_17
   + x0,1_19 + x0,1_21 + x0,1_27 + x0,1_28 + x0,1_30 + x0,1_34 + x0,1_35
   <= 1
 R15: x0,2_1 + x0,2_3 + x0,2_4 + x0,2_5 + x0,2_9 + x0,2_14 + x0,2_17
   + x0,2_19 + x0,2_21 + x0,2_27 + x0,2_28 + x0,2_30 + x0,2_34 + x0,2_35
   <= 1
 R16: x0,3_1 + x0,3_3 + x0,3_4 + x0,3_5 + x0,3_9 + x0,3_14 + x0,3_17
   + x0,3_19 + x0,3_21 + x0,3_27 + x0,3_28 + x0,3_30 + x0,3_34 + x0,3_35
   <= 1
 R17: x0,4_1 + x0,4_3 + x0,4_4 + x0,4_5 + x0,4_9 + x0,4_14 + x0,4_17
   + x0,4_19 + x0,4_21 + x0,4_27 + x0,4_28 + x0,4_30 + x0,4_34 + x0,4_35
   <= 1
 R18: x0,5_1 + x0,5_3 + x0,5_4 + x0,5_5 + x0,5_9 + x0,5_14 + x0,5_17
   + x0,5_19 + x0,5_21 + x0,5_27 + x0,5_28 + x0,5_30 + x0,5_34 + x0,5_35
   <= 1
 R19: x0,6_1 + x0,6_3 + x0,6_4 + x0,6_5 + x0,6_9 + x0,6_14 + x0,6_17
   + x0,6_19 + x0,6_21 + x0,6_27 + x0,6_28 + x0,6_30 + x0,6_34 + x0,6_35
   <= 1
 R20: x1,2_1 + x1,2_3 + x1,2_4 + x1,2_5 + x1,2_9 + x1,2_14 + x1,2_17
   + x1,2_19 + x1,2_21 + x1,2_27 + x1,2_28 + x1,2_30 + x1,2_34 + x1,2_35
   <= 1
 R21: x1,3_1 + x1,3_3 + x1,3_4 + x1,3_5 + x1,3_9 + x1,3_14 + x1,3_17
   + x1,3_19 + x1,3_21 + x1,3_27 + x1,3_28 + x1,3_30 + x1,3_34 + x1,3_35
   <= 1
 R22: x1,4_1 + x1,4_3 + x1,4_4 + x1,4_5 + x1,4_9 + x1,4_14 + x1,4_17
   + x1,4_19 + x1,4_21 + x1,4_27 + x1,4_28 + x1,4_30 + x1,4_34 + x1,4_35
   <= 1
 R23: x1,5_1 + x1,5_3 + x1,5_4 + x1,5_5 + x1,5_9 + x1,5_14 + x1,5_17
   + x1,5_19 + x1,5_21 + x1,5_27 + x1,5_28 + x1,5_30 + x1,5_34 + x1,5_35
   <= 1
 R24: x1,6_1 + x1,6_3 + x1,6_4 + x1,6_5 + x1,6_9 + x1,6_14 + x1,6_17
   + x1,6_19 + x1,6_21 + x1,6_27 + x1,6_28 + x1,6_30 + x1,6_34 + x1,6_35
   <= 1
 R25: x2,3_1 + x2,3_3 + x2,3_4 + x2,3_5 + x2,3_9 + x2,3_14 + x2,3_17
   + x2,3_19 + x2,3_21 + x2,3_27 + x2,3_28 + x2,3_30 + x2,3_34 + x2,3_35
   <= 1
 R26: x2,4_1 + x2,4_3 + x2,4_4 + x2,4_5 + x2,4_9 + x2,4_14 + x2,4_17
   + x2,4_19 + x2,4_21 + x2,4_27 + x2,4_28 + x2,4_30 + x2,4_34 + x2,4_35
   <= 1
 R27: x2,5_1 + x2,5_3 + x2,5_4 + x2,5_5 + x2,5_9 + x2,5_14 + x2,5_17
   + x2,5_19 + x2,5_21 + x2,5_27 + x2,5_28 + x2,5_30 + x2,5_34 + x2,5_35
   <= 1
 R28: x2,6_1 + x2,6_3 + x2,6_4 + x2,6_5 + x2,6_9 + x2,6_14 + x2,6_17
   + x2,6_19 + x2,6_21 + x2,6_27 + x2,6_28 + x2,6_30 + x2,6_34 + x2,6_35
   <= 1
 R29: x3,4_1 + x3,4_3 + x3,4_4 + x3,4_5 + x3,4_9 + x3,4_14 + x3,4_17
   + x3,4_19 + x3,4_21 + x3,4_27 + x3,4_28 + x3,4_30 + x3,4_34 + x3,4_35
   <= 1
 R30: x3,5_1 + x3,5_3 + x3,5_4 + x3,5_5 + x3,5_9 + x3,5_14 + x3,5_17
   + x3,5_19 + x3,5_21 + x3,5_27 + x3,5_28 + x3,5_30 + x3,5_34 + x3,5_35
   <= 1
 R31: x3,6_1 + x3,6_3 + x3,6_4 + x3,6_5 + x3,6_9 + x3,6_14 + x3,6_17
   + x3,6_19 + x3,6_21 + x3,6_27 + x3,6_28 + x3,6_30 + x3,6_34 + x3,6_35
   <= 1
 R32: x4,5_1 + x4,5_3 + x4,5_4 + x4,5_5 + x4,5_9 + x4,5_14 + x4,5_17
   + x4,5_19 + x4,5_21 + x4,5_27 + x4,5_28 + x4,5_30 + x4,5_34 + x4,5_35
   <= 1
 R33: x4,6_1 + x4,6_3 + x4,6_4 + x4,6_5 + x4,6_9 + x4,6_14 + x4,6_17
   + x4,6_19 + x4,6_21 + x4,6_27 + x4,6_28 + x4,6_30 + x4,6_34 + x4,6_35
   <= 1
 R34: x5,6_1 + x5,6_3 + x5,6_4 + x5,6_5 + x5,6_9 + x5,6_14 + x5,6_17
   + x5,6_19 + x5,6_21 + x5,6_27 + x5,6_28 + x5,6_30 + x5,6_34 + x5,6_35
   <= 1
 R35: p0 - p1 <= -1
 R36: - x0,1_1 - p0 + p1 >= 0
 R37: 247 x0,1_1 - p0 + p1 <= 248
 R38: - 3 x0,1_3 - p0 + p1 >= 0
 R39: 247 x0,1_3 - p0 + p1 <= 250
 R40: - 4 x0,1_4 - p0 + p1 >= 0
 R41: 247 x0,1_4 - p0 + p1 <= 251
 R42: - 5 x0,1_5 - p0 + p1 >= 0
 R43: 247 x0,1_5 - p0 + p1 <= 252
 R44: - 9 x0,1_9 - p0 + p1 >= 0
 R45: 247 x0,1_9 - p0 + p1 <= 256
 R46: - 14 x0,1_14 - p0 + p1 >= 0
 R47: 247 x0,1_14 - p0 + p1 <= 261
 R48: - 17 x0,1_17 - p0 + p1 >= 0
 R49: 247 x0,1_17 - p0 + p1 <= 264
 R50: - 19 x0,1_19 - p0 + p1 >= 0
 R51: 247 x0,1_19 - p0 + p1 <= 266
 R52: - 21 x0,1_21 - p0 + p1 >= 0
 R53: 247 x0,1_21 - p0 + p1 <= 268
 R54: - 27 x0,1_27 - p0 + p1 >= 0
 R55: 247 x0,1_27 - p0 + p1 <= 274
 R56: - 28 x0,1_28 - p0 + p1 >= 0
 R57: 247 x0,1_28 - p0 + p1 <= 275
 R58: - 30 x0,1_30 - p0 + p1 >= 0
 R59: 247 x0,1_30 - p0 + p1 <= 277
 R60: - 34 x0,1_34 - p0 + p1 >= 0
 R61: 247 x0,1_34 - p0 + p1 <= 281
 R62: - 35 x0,1_35 - p0 + p1 >= 0
 R63: 247 x0,1_35 - p0 + p1 <= 282
 R64: p0 - p2 <= -1
 R65: - x0,2_1 - p0 + p2 >= 0
 R66: 247 x0,2_1 - p0 + p2 <= 248
 R67: - 3 x0,2_3 - p0 + p2 >= 0
 R68: 247 x0,2_3 - p0 + p2 <= 250
 R69: - 4 x0,2_4 - p0 + p2 >= 0
 R70: 247 x0,2_4 - p0 + p2 <= 251
 R71: - 5 x0,2_5 - p0 + p2 >= 0
 R72: 247 x0,2_5 - p0 + p2 <= 252
 R73: - 9 x0,2_9 - p0 + p2 >= 0
 R74: 247 x0,2_9 - p0 + p2 <= 256
 R75: - 14 x0,2_14 - p0 + p2 >= 0
 R76: 247 x0,2_14 - p0 + p2 <= 261
 R77: - 17 x0,2_17 - p0 + p2 >= 0
 R78: 247 x0,2_17 - p0 + p2 <= 264
 R79: - 19 x0,2_19 - p0 + p2 >= 0
 R80: 247 x0,2_19 - p0 + p2 <= 266
 R81: - 21 x0,2_21 - p0 + p2 >= 0
 R82: 247 x0,2_21 - p0 + p2 <= 268
 R83: - 27 x0,2_27 - p0 + p2 >= 0
 R84: 247 x0,2_27 - p0 + p2 <= 274
 R85: - 28 x0,2_28 - p0 + p2 >= 0
 R86: 247 x0,2_28 - p0 + p2 <= 275
 R87: - 30 x0,2_30 - p0 + p2 >= 0
 R88: 247 x0,2_30 - p0 + p2 <= 277
 R89: - 34 x0,2_34 - p0 + p2 >= 0
 R90: 247 x0,2_34 - p0 + p2 <= 281
 R91: - 35 x0,2_35 - p0 + p2 >= 0
 R92: 247 x0,2_35 - p0 + p2 <= 282
 R93: p0 - p3 <= -1
 R94: - x0,3_1 - p0 + p3 >= 0
 R95: 247 x0,3_1 - p0 + p3 <= 248
 R96: - 3 x0,3_3 - p0 + p3 >= 0
 R97: 247 x0,3_3 - p0 + p3 <= 250
 R98: - 4 x0,3_4 - p0 + p3 >= 0
 R99: 247 x0,3_4 - p0 + p3 <= 251
 R100: - 5 x0,3_5 - p0 + p3 >= 0
 R101: 247 x0,3_5 - p0 + p3 <= 252
 R102: - 9 x0,3_9 - p0 + p3 >= 0
 R103: 247 x0,3_9 - p0 + p3 <= 256
 R104: - 14 x0,3_14 - p0 + p3 >= 0
 R105: 247 x0,3_14 - p0 + p3 <= 261
 R106: - 17 x0,3_17 - p0 + p3 >= 0
 R107: 247 x0,3_17 - p0 + p3 <= 264
 R108: - 19 x0,3_19 - p0 + p3 >= 0
 R109: 247 x0,3_19 - p0 + p3 <= 266
 R110: - 21 x0,3_21 - p0 + p3 >= 0
 R111: 247 x0,3_21 - p0 + p3 <= 268
 R112: - 27 x0,3_27 - p0 + p3 >= 0
 R113: 247 x0,3_27 - p0 + p3 <= 274
 R114: - 28 x0,3_28 - p0 + p3 >= 0
 R115: 247 x0,3_28 - p0 + p3 <= 275
 R116: - 30 x0,3_30 - p0 + p3 >= 0
 R117: 247 x0,3_30 - p0 + p3 <= 277
 R118: - 34 x0,3_34 - p0 + p3 >= 0
 R119: 247 x0,3_34 - p0 + p3 <= 281
 R120: - 35 x0,3_35 - p0 + p3 >= 0
 R121: 247 x0,3_35 - p0 + p3 <= 282
 R122: p0 - p4 <= -1
 R123: - x0,4_1 - p0 + p4 >= 0
 R124: 247 x0,4_1 - p0 + p4 <= 248
 R125: - 3 x0,4_3 - p0 + p4 >= 0
 R126: 247 x0,4_3 - p0 + p4 <= 250
 R127: - 4 x0,4_4 - p0 + p4 >= 0
 R128: 247 x0,4_4 - p0 + p4 <= 251
 R129: - 5 x0,4_5 - p0 + p4 >= 0
 R130: 247 x0,4_5 - p0 + p4 <= 252
 R131: - 9 x0,4_9 - p0 + p4 >= 0
 R132: 247 x0,4_9 - p0 + p4 <= 256
 R133: - 14 x0,4_14 - p0 + p4 >= 0
 R134: 247 x0,4_14 - p0 + p4 <= 261
 R135: - 17 x0,4_17 - p0 + p4 >= 0
 R136: 247 x0,4_17 - p0 + p4 <= 264
 R137: - 19 x0,4_19 - p0 + p4 >= 0
 R138: 247 x0,4_19 - p0 + p4 <= 266
 R139: - 21 x0,4_21 - p0 + p4 >= 0
 R140: 247 x0,4_21 - p0 + p4 <= 268
 R141: - 27 x0,4_27 - p0 + p4 >= 0
 R142: 247 x0,4_27 - p0 + p4 <= 274
 R143: - 28 x0,4_28 - p0 + p4 >= 0
 R144: 247 x0,4_28 - p0 + p4 <= 275
 R145: - 30 x0,4_30 - p0 + p4 >= 0
 R146: 247 x0,4_30 - p0 + p4 <= 277
 R147: - 34 x0,4_34 - p0 + p4 >= 0
 R148: 247 x0,4_34 - p0 + p4 <= 281
 R149: - 35 x0,4_35 - p0 + p4 >= 0
 R150: 247 x0,4_35 - p0 + p4 <= 282
 R151: p0 - p5 <= -1
 R152: - x0,5_1 - p0 + p5 >= 0
 R153: 247 x0,5_1 - p0 + p5 <= 248
 R154: - 3 x0,5_3 - p0 + p5 >= 0
 R155: 247 x0,5_3 - p0 + p5 <= 250
 R156: - 4 x0,5_4 - p0 + p5 >= 0
 R157: 247 x0,5_4 - p0 + p5 <= 251
 R158: - 5 x0,5_5 - p0 + p5 >= 0
 R159: 247 x0,5_5 - p0 + p5 <= 252
 R160: - 9 x0,5_9 - p0 + p5 >= 0
 R161: 247 x0,5_9 - p0 + p5 <= 256
 R162: - 14 x0,5_14 - p0 + p5 >= 0
 R163: 247 x0,5_14 - p0 + p5 <= 261
 R164: - 17 x0,5_17 - p0 + p5 >= 0
 R165: 247 x0,5_17 - p0 + p5 <= 264
 R166: - 19 x0,5_19 - p0 + p5 >= 0
 R167: 247 x0,5_19 - p0 + p5 <= 266
 R168: - 21 x0,5_21 - p0 + p5 >= 0
 R169: 247 x0,5_21 - p0 + p5 <= 268
 R170: - 27 x0,5_27 - p0 + p5 >= 0
 R171: 247 x0,5_27 - p0 + p5 <= 274
 R172: - 28 x0,5_28 - p0 + p5 >= 0
 R173: 247 x0,5_28 - p0 + p5 <= 275
 R174: - 30 x0,5_30 - p0 + p5 >= 0
 R175: 247 x0,5_30 - p0 + p5 <= 277
 R176: - 34 x0,5_34 - p0 + p5 >= 0
 R177: 247 x0,5_34 - p0 + p5 <= 281
 R178: - 35 x0,5_35 - p0 + p5 >= 0
 R179: 247 x0,5_35 - p0 + p5 <= 282
 R180: p0 - p6 <= -1
 R181: - x0,6_1 - p0 + p6 >= 0
 R182: 247 x0,6_1 - p0 + p6 <= 248
 R183: - 3 x0,6_3 - p0 + p6 >= 0
 R184: 247 x0,6_3 - p0 + p6 <= 250
 R185: - 4 x0,6_4 - p0 + p6 >= 0
 R186: 247 x0,6_4 - p0 + p6 <= 251
 R187: - 5 x0,6_5 - p0 + p6 >= 0
 R188: 247 x0,6_5 - p0 + p6 <= 252
 R189: - 9 x0,6_9 - p0 + p6 >= 0
 R190: 247 x0,6_9 - p0 + p6 <= 256
 R191: - 14 x0,6_14 - p0 + p6 >= 0
 R192: 247 x0,6_14 - p0 + p6 <= 261
 R193: - 17 x0,6_17 - p0 + p6 >= 0
 R194: 247 x0,6_17 - p0 + p6 <= 264
 R195: - 19 x0,6_19 - p0 + p6 >= 0
 R196: 247 x0,6_19 - p0 + p6 <= 266
 R197: - 21 x0,6_21 - p0 + p6 >= 0
 R198: 247 x0,6_21 - p0 + p6 <= 268
 R199: - 27 x0,6_27 - p0 + p6 >= 0
 R200: 247 x0,6_27 - p0 + p6 <= 274
 R201: - 28 x0,6_28 - p0 + p6 >= 0
 R202: 247 x0,6_28 - p0 + p6 <= 275
 R203: - 30 x0,6_30 - p0 + p6 >= 0
 R204: 247 x0,6_30 - p0 + p6 <= 277
 R205: - 34 x0,6_34 - p0 + p6 >= 0
 R206: 247 x0,6_34 - p0 + p6 <= 281
 R207: - 35 x0,6_35 - p0 + p6 >= 0
 R208: 247 x0,6_35 - p0 + p6 <= 282
 R209: p1 - p2 <= -1
 R210: - x1,2_1 - p1 + p2 >= 0
 R211: 247 x1,2_1 - p1 + p2 <= 248
 R212: - 3 x1,2_3 - p1 + p2 >= 0
 R213: 247 x1,2_3 - p1 + p2 <= 250
 R214: - 4 x1,2_4 - p1 + p2 >= 0
 R215: 247 x1,2_4 - p1 + p2 <= 251
 R216: - 5 x1,2_5 - p1 + p2 >= 0
 R217: 247 x1,2_5 - p1 + p2 <= 252
 R218: - 9 x1,2_9 - p1 + p2 >= 0
 R219: 247 x1,2_9 - p1 + p2 <= 256
 R220: - 14 x1,2_14 - p1 + p2 >= 0
 R221: 247 x1,2_14 - p1 + p2 <= 261
 R222: - 17 x1,2_17 - p1 + p2 >= 0
 R223: 247 x1,2_17 - p1 + p2 <= 264
 R224: - 19 x1,2_19 - p1 + p2 >= 0
 R225: 247 x1,2_19 - p1 + p2 <= 266
 R226: - 21 x1,2_21 - p1 + p2 >= 0
 R227: 247 x1,2_21 - p1 + p2 <= 268
 R228: - 27 x1,2_27 - p1 + p2 >= 0
 R229: 247 x1,2_27 - p1 + p2 <= 274
 R230: - 28 x1,2_28 - p1 + p2 >= 0
 R231: 247 x1,2_28 - p1 + p2 <= 275
 R232: - 30 x1,2_30 - p1 + p2 >= 0
 R233: 247 x1,2_30 - p1 + p2 <= 277
 R234: - 34 x1,2_34 - p1 + p2 >= 0
 R235: 247 x1,2_34 - p1 + p2 <= 281
 R236: - 35 x1,2_35 - p1 + p2 >= 0
 R237: 247 x1,2_35 - p1 + p2 <= 282
 R238: p1 - p3 <= -1
 R239: - x1,3_1 - p1 + p3 >= 0
 R240: 247 x1,3_1 - p1 + p3 <= 248
 R241: - 3 x1,3_3 - p1 + p3 >= 0
 R242: 247 x1,3_3 - p1 + p3 <= 250
 R243: - 4 x1,3_4 - p1 + p3 >= 0
 R244: 247 x1,3_4 - p1 + p3 <= 251
 R245: - 5 x1,3_5 - p1 + p3 >= 0
 R246: 247 x1,3_5 - p1 + p3 <= 252
 R247: - 9 x1,3_9 - p1 + p3 >= 0
 R248: 247 x1,3_9 - p1 + p3 <= 256
 R249: - 14 x1,3_14 - p1 + p3 >= 0
 R250: 247 x1,3_14 - p1 + p3 <= 261
 R251: - 17 x1,3_17 - p1 + p3 >= 0
 R252: 247 x1,3_17 - p1 + p3 <= 264
 R253: - 19 x1,3_19 - p1 + p3 >= 0
 R254: 247 x1,3_19 - p1 + p3 <= 266
 R255: - 21 x1,3_21 - p1 + p3 >= 0
 R256: 247 x1,3_21 - p1 + p3 <= 268
 R257: - 27 x1,3_27 - p1 + p3 >= 0
 R258: 247 x1,3_27 - p1 + p3 <= 274
 R259: - 28 x1,3_28 - p1 + p3 >= 0
 R260: 247 x1,3_28 - p1 + p3 <= 275
 R261: - 30 x1,3_30 - p1 + p3 >= 0
 R262: 247 x1,3_30 - p1 + p3 <= 277
 R263: - 34 x1,3_34 - p1 + p3 >= 0
 R264: 247 x1,3_34 - p1 + p3 <= 281
 R265: - 35 x1,3_35 - p1 + p3 >= 0
 R266: 247 x1,3_35 - p1 + p3 <= 282
 R267: p1 - p4 <= -1
 R268: - x1,4_1 - p1 + p4 >= 0
 R269: 247 x1,4_1 - p1 + p4 <= 248
 R270: - 3 x1,4_3 - p1 + p4 >= 0
 R271: 247 x1,4_3 - p1 + p4 <= 250
 R272: - 4 x1,4_4 - p1 + p4 >= 0
 R273: 247 x1,4_4 - p1 + p4 <= 251
 R274: - 5 x1,4_5 - p1 + p4 >= 0
 R275: 247 x1,4_5 - p1 + p4 <= 252
 R276: - 9 x1,4_9 - p1 + p4 >= 0
 R277: 247 x1,4_9 - p1 + p4 <= 256
 R278: - 14 x1,4_14 - p1 + p4 >= 0
 R279: 247 x1,4_14 - p1 + p4 <= 261
 R280: - 17 x1,4_17 - p1 + p4 >= 0
 R281: 247 x1,4_17 - p1 + p4 <= 264
 R282: - 19 x1,4_19 - p1 + p4 >= 0
 R283: 247 x1,4_19 - p1 + p4 <= 266
 R284: - 21 x1,4_21 - p1 + p4 >= 0
 R285: 247 x1,4_21 - p1 + p4 <= 268
 R286: - 27 x1,4_27 - p1 + p4 >= 0
 R287: 247 x1,4_27 - p1 + p4 <= 274
 R288: - 28 x1,4_28 - p1 + p4 >= 0
 R289: 247 x1,4_28 - p1 + p4 <= 275
 R290: - 30 x1,4_30 - p1 + p4 >= 0
 R291: 247 x1,4_30 - p1 + p4 <= 277
 R292: - 34 x1,4_34 - p1 + p4 >= 0
 R293: 247 x1,4_34 - p1 + p4 <= 281
 R294: - 35 x1,4_35 - p1 + p4 >= 0
 R295: 247 x1,4_35 - p1 + p4 <= 282
 R296: p1 - p5 <= -1
 R297: - x1,5_1 - p1 + p5 >= 0
 R298: 247 x1,5_1 - p1 + p5 <= 248
 R299: - 3 x1,5_3 - p1 + p5 >= 0
 R300: 247 x1,5_3 - p1 + p5 <= 250
 R301: - 4 x1,5_4 - p1 + p5 >= 0
 R302: 247 x1,5_4 - p1 + p5 <= 251
 R303: - 5 x1,5_5 - p1 + p5 >= 0
 R304: 247 x1,5_5 - p1 + p5 <= 252
 R305: - 9 x1,5_9 - p1 + p5 >= 0
 R306: 247 x1,5_9 - p1 + p5 <= 256
 R307: - 14 x1,5_14 - p1 + p5 >= 0
 R308: 247 x1,5_14 - p1 + p5 <= 261
 R309: - 17 x1,5_17 - p1 + p5 >= 0
 R310: 247 x1,5_17 - p1 + p5 <= 264
 R311: - 19 x1,5_19 - p1 + p5 >= 0
 R312: 247 x1,5_19 - p1 + p5 <= 266
 R313: - 21 x1,5_21 - p1 + p5 >= 0
 R314: 247 x1,5_21 - p1 + p5 <= 268
 R315: - 27 x1,5_27 - p1 + p5 >= 0
 R316: 247 x1,5_27 - p1 + p5 <= 274
 R317: - 28 x1,5_28 - p1 + p5 >= 0
 R318: 247 x1,5_28 - p1 + p5 <= 275
 R319: - 30 x1,5_30 - p1 + p5 >= 0
 R320: 247 x1,5_30 - p1 + p5 <= 277
 R321: - 34 x1,5_34 - p1 + p5 >= 0
 R322: 247 x1,5_34 - p1 + p5 <= 281
 R323: - 35 x1,5_35 - p1 + p5 >= 0
 R324: 247 x1,5_35 - p1 + p5 <= 282
 R325: p1 - p6 <= -1
 R326: - x1,6_1 - p1 + p6 >= 0
 R327: 247 x1,6_1 - p1 + p6 <= 248
 R328: - 3 x1,6_3 - p1 + p6 >= 0
 R329: 247 x1,6_3 - p1 + p6 <= 250
 R330: - 4 x1,6_4 - p1 + p6 >= 0
 R331: 247 x1,6_4 - p1 + p6 <= 251
 R332: - 5 x1,6_5 - p1 + p6 >= 0
 R333: 247 x1,6_5 - p1 + p6 <= 252
 R334: - 9 x1,6_9 - p1 + p6 >= 0
 R335: 247 x1,6_9 - p1 + p6 <= 256
 R336: - 14 x1,6_14 - p1 + p6 >= 0
 R337: 247 x1,6_14 - p1 + p6 <= 261
 R338: - 17 x1,6_17 - p1 + p6 >= 0
 R339: 247 x1,6_17 - p1 + p6 <= 264
 R340: - 19 x1,6_19 - p1 + p6 >= 0
 R341: 247 x1,6_19 - p1 + p6 <= 266
 R342: - 21 x1,6_21 - p1 + p6 >= 0
 R343: 247 x1,6_21 - p1 + p6 <= 268
 R344: - 27 x1,6_27 - p1 + p6 >= 0
 R345: 247 x1,6_27 - p1 + p6 <= 274
 R346: - 28 x1,6_28 - p1 + p6 >= 0
 R347: 247 x1,6_28 - p1 + p6 <= 275
 R348: - 30 x1,6_30 - p1 + p6 >= 0
 R349: 247 x1,6_30 - p1 + p6 <= 277
 R350: - 34 x1,6_34 - p1 + p6 >= 0
 R351: 247 x1,6_34 - p1 + p6 <= 281
 R352: - 35 x1,6_35 - p1 + p6 >= 0
 R353: 247 x1,6_35 - p1 + p6 <= 282
 R354: p2 - p3 <= -1
 R355: - x2,3_1 - p2 + p3 >= 0
 R356: 247 x2,3_1 - p2 + p3 <= 248
 R357: - 3 x2,3_3 - p2 + p3 >= 0
 R358: 247 x2,3_3 - p2 + p3 <= 250
 R359: - 4 x2,3_4 - p2 + p3 >= 0
 R360: 247 x2,3_4 - p2 + p3 <= 251
 R361: - 5 x2,3_5 - p2 + p3 >= 0
 R362: 247 x2,3_5 - p2 + p3 <= 252
 R363: - 9 x2,3_9 - p2 + p3 >= 0
 R364: 247 x2,3_9 - p2 + p3 <= 256
 R365: - 14 x2,3_14 - p2 + p3 >= 0
 R366: 247 x2,3_14 - p2 + p3 <= 261
 R367: - 17 x2,3_17 - p2 + p3 >= 0
 R368: 247 x2,3_17 - p2 + p3 <= 264
 R369: - 19 x2,3_19 - p2 + p3 >= 0
 R370: 247 x2,3_19 - p2 + p3 <= 266
 R371: - 21 x2,3_21 - p2 + p3 >= 0
 R372: 247 x2,3_21 - p2 + p3 <= 268
 R373: - 27 x2,3_27 - p2 + p3 >= 0
 R374: 247 x2,3_27 - p2 + p3 <= 274
 R375: - 28 x2,3_28 - p2 + p3 >= 0
 R376: 247 x2,3_28 - p2 + p3 <= 275
 R377: - 30 x2,3_30 - p2 + p3 >= 0
 R378: 247 x2,3_30 - p2 + p3 <= 277
 R379: - 34 x2,3_34 - p2 + p3 >= 0
 R380: 247 x2,3_34 - p2 + p3 <= 281
 R381: - 35 x2,3_35 - p2 + p3 >= 0
 R382: 247 x2,3_35 - p2 + p3 <= 282
 R383: p2 - p4 <= -1
 R384: - x2,4_1 - p2 + p4 >= 0
 R385: 247 x2,4_1 - p2 + p4 <= 248
 R386: - 3 x2,4_3 - p2 + p4 >= 0
 R387: 247 x2,4_3 - p2 + p4 <= 250
 R388: - 4 x2,4_4 - p2 + p4 >= 0
 R389: 247 x2,4_4 - p2 + p4 <= 251
 R390: - 5 x2,4_5 - p2 + p4 >= 0
 R391: 247 x2,4_5 - p2 + p4 <= 252
 R392: - 9 x2,4_9 - p2 + p4 >= 0
 R393: 247 x2,4_9 - p2 + p4 <= 256
 R394: - 14 x2,4_14 - p2 + p4 >= 0
 R395: 247 x2,4_14 - p2 + p4 <= 261
 R396: - 17 x2,4_17 - p2 + p4 >= 0
 R397: 247 x2,4_17 - p2 + p4 <= 264
 R398: - 19 x2,4_19 - p2 + p4 >= 0
 R399: 247 x2,4_19 - p2 + p4 <= 266
 R400: - 21 x2,4_21 - p2 + p4 >= 0
 R401: 247 x2,4_21 - p2 + p4 <= 268
 R402: - 27 x2,4_27 - p2 + p4 >= 0
 R403: 247 x2,4_27 - p2 + p4 <= 274
 R404: - 28 x2,4_28 - p2 + p4 >= 0
 R405: 247 x2,4_28 - p2 + p4 <= 275
 R406: - 30 x2,4_30 - p2 + p4 >= 0
 R407: 247 x2,4_30 - p2 + p4 <= 277
 R408: - 34 x2,4_34 - p2 + p4 >= 0
 R409: 247 x2,4_34 - p2 + p4 <= 281
 R410: - 35 x2,4_35 - p2 + p4 >= 0
 R411: 247 x2,4_35 - p2 + p4 <= 282
 R412: p2 - p5 <= -1
 R413: - x2,5_1 - p2 + p5 >= 0
 R414: 247 x2,5_1 - p2 + p5 <= 248
 R415: - 3 x2,5_3 - p2 + p5 >= 0
 R416: 247 x2,5_3 - p2 + p5 <= 250
 R417: - 4 x2,5_4 - p2 + p5 >= 0
 R418: 247 x2,5_4 - p2 + p5 <= 251
 R419: - 5 x2,5_5 - p2 + p5 >= 0
 R420: 247 x2,5_5 - p2 + p5 <= 252
 R421: - 9 x2,5_9 - p2 + p5 >= 0
 R422: 247 x2,5_9 - p2 + p5 <= 256
 R423: - 14 x2,5_14 - p2 + p5 >= 0
 R424: 247 x2,5_14 - p2 + p5 <= 261
 R425: - 17 x2,5_17 - p2 + p5 >= 0
 R426: 247 x2,5_17 - p2 + p5 <= 264
 R427: - 19 x2,5_19 - p2 + p5 >= 0
 R428: 247 x2,5_19 - p2 + p5 <= 266
 R429: - 21 x2,5_21 - p2 + p5 >= 0
 R430: 247 x2,5_21 - p2 + p5 <= 268
 R431: - 27 x2,5_27 - p2 + p5 >= 0
 R432: 247 x2,5_27 - p2 + p5 <= 274
 R433: - 28 x2,5_28 - p2 + p5 >= 0
 R434: 247 x2,5_28 - p2 + p5 <= 275
 R435: - 30 x2,5_30 - p2 + p5 >= 0
 R436: 247 x2,5_30 - p2 + p5 <= 277
 R437: - 34 x2,5_34 - p2 + p5 >= 0
 R438: 247 x2,5_34 - p2 + p5 <= 281
 R439: - 35 x2,5_35 - p2 + p5 >= 0
 R440: 247 x2,5_35 - p2 + p5 <= 282
 R441: p2 - p6 <= -1
 R442: - x2,6_1 - p2 + p6 >= 0
 R443: 247 x2,6_1 - p2 + p6 <= 248
 R444: - 3 x2,6_3 - p2 + p6 >= 0
 R445: 247 x2,6_3 - p2 + p6 <= 250
 R446: - 4 x2,6_4 - p2 + p6 >= 0
 R447: 247 x2,6_4 - p2 + p6 <= 251
 R448: - 5 x2,6_5 - p2 + p6 >= 0
 R449: 247 x2,6_5 - p2 + p6 <= 252
 R450: - 9 x2,6_9 - p2 + p6 >= 0
 R451: 247 x2,6_9 - p2 + p6 <= 256
 R452: - 14 x2,6_14 - p2 + p6 >= 0
 R453: 247 x2,6_14 - p2 + p6 <= 261
 R454: - 17 x2,6_17 - p2 + p6 >= 0
 R455: 247 x2,6_17 - p2 + p6 <= 264
 R456: - 19 x2,6_19 - p2 + p6 >= 0
 R457: 247 x2,6_19 - p2 + p6 <= 266
 R458: - 21 x2,6_21 - p2 + p6 >= 0
 R459: 247 x2,6_21 - p2 + p6 <= 268
 R460: - 27 x2,6_27 - p2 + p6 >= 0
 R461: 247 x2,6_27 - p2 + p6 <= 274
 R462: - 28 x2,6_28 - p2 + p6 >= 0
 R463: 247 x2,6_28 - p2 + p6 <= 275
 R464: - 30 x2,6_30 - p2 + p6 >= 0
 R465: 247 x2,6_30 - p2 + p6 <= 277
 R466: - 34 x2,6_34 - p2 + p6 >= 0
 R467: 247 x2,6_34 - p2 + p6 <= 281
 R468: - 35 x2,6_35 - p2 + p6 >= 0
 R469: 247 x2,6_35 - p2 + p6 <= 282
 R470: p3 - p4 <= -1
 R471: - x3,4_1 - p3 + p4 >= 0
 R472: 247 x3,4_1 - p3 + p4 <= 248
 R473: - 3 x3,4_3 - p3 + p4 >= 0
 R474: 247 x3,4_3 - p3 + p4 <= 250
 R475: - 4 x3,4_4 - p3 + p4 >= 0
 R476: 247 x3,4_4 - p3 + p4 <= 251
 R477: - 5 x3,4_5 - p3 + p4 >= 0
 R478: 247 x3,4_5 - p3 + p4 <= 252
 R479: - 9 x3,4_9 - p3 + p4 >= 0
 R480: 247 x3,4_9 - p3 + p4 <= 256
 R481: - 14 x3,4_14 - p3 + p4 >= 0
 R482: 247 x3,4_14 - p3 + p4 <= 261
 R483: - 17 x3,4_17 - p3 + p4 >= 0
 R484: 247 x3,4_17 - p3 + p4 <= 264
 R485: - 19 x3,4_19 - p3 + p4 >= 0
 R486: 247 x3,4_19 - p3 + p4 <= 266
 R487: - 21 x3,4_21 - p3 + p4 >= 0
 R488: 247 x3,4_21 - p3 + p4 <= 268
 R489: - 27 x3,4_27 - p3 + p4 >= 0
 R490: 247 x3,4_27 - p3 + p4 <= 274
 R491: - 28 x3,4_28 - p3 + p4 >= 0
 R492: 247 x3,4_28 - p3 + p4 <= 275
 R493: - 30 x3,4_30 - p3 + p4 >= 0
 R494: 247 x3,4_30 - p3 + p4 <= 277
 R495: - 34 x3,4_34 - p3 + p4 >= 0
 R496: 247 x3,4_34 - p3 + p4 <= 281
 R497: - 35 x3,4_35 - p3 + p4 >= 0
 R498: 247 x3,4_35 - p3 + p4 <= 282
 R499: p3 - p5 <= -1
 R500: - x3,5_1 - p3 + p5 >= 0
 R501: 247 x3,5_1 - p3 + p5 <= 248
 R502: - 3 x3,5_3 - p3 + p5 >= 0
 R503: 247 x3,5_3 - p3 + p5 <= 250
 R504: - 4 x3,5_4 - p3 + p5 >= 0
 R505: 247 x3,5_4 - p3 + p5 <= 251
 R506: - 5 x3,5_5 - p3 + p5 >= 0
 R507: 247 x3,5_5 - p3 + p5 <= 252
 R508: - 9 x3,5_9 - p3 + p5 >= 0
 R509: 247 x3,5_9 - p3 + p5 <= 256
 R510: - 14 x3,5_14 - p3 + p5 >= 0
 R511: 247 x3,5_14 - p3 + p5 <= 261
 R512: - 17 x3,5_17 - p3 + p5 >= 0
 R513: 247 x3,5_17 - p3 + p5 <= 264
 R514: - 19 x3,5_19 - p3 + p5 >= 0
 R515: 247 x3,5_19 - p3 + p5 <= 266
 R516: - 21 x3,5_21 - p3 + p5 >= 0
 R517: 247 x3,5_21 - p3 + p5 <= 268
 R518: - 27 x3,5_27 - p3 + p5 >= 0
 R519: 247 x3,5_27 - p3 + p5 <= 274
 R520: - 28 x3,5_28 - p3 + p5 >= 0
 R521: 247 x3,5_28 - p3 + p5 <= 275
 R522: - 30 x3,5_30 - p3 + p5 >= 0
 R523: 247 x3,5_30 - p3 + p5 <= 277
 R524: - 34 x3,5_34 - p3 + p5 >= 0
 R525: 247 x3,5_34 - p3 + p5 <= 281
 R526: - 35 x3,5_35 - p3 + p5 >= 0
 R527: 247 x3,5_35 - p3 + p5 <= 282
 R528: p3 - p6 <= -1
 R529: - x3,6_1 - p3 + p6 >= 0
 R530: 247 x3,6_1 - p3 + p6 <= 248
 R531: - 3 x3,6_3 - p3 + p6 >= 0
 R532: 247 x3,6_3 - p3 + p6 <= 250
 R533: - 4 x3,6_4 - p3 + p6 >= 0
 R534: 247 x3,6_4 - p3 + p6 <= 251
 R535: - 5 x3,6_5 - p3 + p6 >= 0
 R536: 247 x3,6_5 - p3 + p6 <= 252
 R537: - 9 x3,6_9 - p3 + p6 >= 0
 R538: 247 x3,6_9 - p3 + p6 <= 256
 R539: - 14 x3,6_14 - p3 + p6 >= 0
 R540: 247 x3,6_14 - p3 + p6 <= 261
 R541: - 17 x3,6_17 - p3 + p6 >= 0
 R542: 247 x3,6_17 - p3 + p6 <= 264
 R543: - 19 x3,6_19 - p3 + p6 >= 0
 R544: 247 x3,6_19 - p3 + p6 <= 266
 R545: - 21 x3,6_21 - p3 + p6 >= 0
 R546: 247 x3,6_21 - p3 + p6 <= 268
 R547: - 27 x3,6_27 - p3 + p6 >= 0
 R548: 247 x3,6_27 - p3 + p6 <= 274
 R549: - 28 x3,6_28 - p3 + p6 >= 0
 R550: 247 x3,6_28 - p3 + p6 <= 275
 R551: - 30 x3,6_30 - p3 + p6 >= 0
 R552: 247 x3,6_30 - p3 + p6 <= 277
 R553: - 34 x3,6_34 - p3 + p6 >= 0
 R554: 247 x3,6_34 - p3 + p6 <= 281
 R555: - 35 x3,6_35 - p3 + p6 >= 0
 R556: 247 x3,6_35 - p3 + p6 <= 282
 R557: p4 - p5 <= -1
 R558: - x4,5_1 - p4 + p5 >= 0
 R559: 247 x4,5_1 - p4 + p5 <= 248
 R560: - 3 x4,5_3 - p4 + p5 >= 0
 R561: 247 x4,5_3 - p4 + p5 <= 250
 R562: - 4 x4,5_4 - p4 + p5 >= 0
 R563: 247 x4,5_4 - p4 + p5 <= 251
 R564: - 5 x4,5_5 - p4 + p5 >= 0
 R565: 247 x4,5_5 - p4 + p5 <= 252
 R566: - 9 x4,5_9 - p4 + p5 >= 0
 R567: 247 x4,5_9 - p4 + p5 <= 256
 R568: - 14 x4,5_14 - p4 + p5 >= 0
 R569: 247 x4,5_14 - p4 + p5 <= 261
 R570: - 17 x4,5_17 - p4 + p5 >= 0
 R571: 247 x4,5_17 - p4 + p5 <= 264
 R572: - 19 x4,5_19 - p4 + p5 >= 0
 R573: 247 x4,5_19 - p4 + p5 <= 266
 R574: - 21 x4,5_21 - p4 + p5 >= 0
 R575: 247 x4,5_21 - p4 + p5 <= 268
 R576: - 27 x4,5_27 - p4 + p5 >= 0
 R577: 247 x4,5_27 - p4 + p5 <= 274
 R578: - 28 x4,5_28 - p4 + p5 >= 0
 R579: 247 x4,5_28 - p4 + p5 <= 275
 R580: - 30 x4,5_30 - p4 + p5 >= 0
 R581: 247 x4,5_30 - p4 + p5 <= 277
 R582: - 34 x4,5_34 - p4 + p5 >= 0
 R583: 247 x4,5_34 - p4 + p5 <= 281
 R584: - 35 x4,5_35 - p4 + p5 >= 0
 R585: 247 x4,5_35 - p4 + p5 <= 282
 R586: p4 - p6 <= -1
 R587: - x4,6_1 - p4 + p6 >= 0
 R588: 247 x4,6_1 - p4 + p6 <= 248
 R589: - 3 x4,6_3 - p4 + p6 >= 0
 R590: 247 x4,6_3 - p4 + p6 <= 250
 R591: - 4 x4,6_4 - p4 + p6 >= 0
 R592: 247 x4,6_4 - p4 + p6 <= 251
 R593: - 5 x4,6_5 - p4 + p6 >= 0
 R594: 247 x4,6_5 - p4 + p6 <= 252
 R595: - 9 x4,6_9 - p4 + p6 >= 0
 R596: 247 x4,6_9 - p4 + p6 <= 256
 R597: - 14 x4,6_14 - p4 + p6 >= 0
 R598: 247 x4,6_14 - p4 + p6 <= 261
 R599: - 17 x4,6_17 - p4 + p6 >= 0
 R600: 247 x4,6_17 - p4 + p6 <= 264
 R601: - 19 x4,6_19 - p4 + p6 >= 0
 R602: 247 x4,6_19 - p4 + p6 <= 266
 R603: - 21 x4,6_21 - p4 + p6 >= 0
 R604: 247 x4,6_21 - p4 + p6 <= 268
 R605: - 27 x4,6_27 - p4 + p6 >= 0
 R606: 247 x4,6_27 - p4 + p6 <= 274
 R607: - 28 x4,6_28 - p4 + p6 >= 0
 R608: 247 x4,6_28 - p4 + p6 <= 275
 R609: - 30 x4,6_30 - p4 + p6 >= 0
 R610: 247 x4,6_30 - p4 + p6 <= 277
 R611: - 34 x4,6_34 - p4 + p6 >= 0
 R612: 247 x4,6_34 - p4 + p6 <= 281
 R613: - 35 x4,6_35 - p4 + p6 >= 0
 R614: 247 x4,6_35 - p4 + p6 <= 282
 R615: p5 - p6 <= -1
 R616: - x5,6_1 - p5 + p6 >= 0
 R617: 247 x5,6_1 - p5 + p6 <= 248
 R618: - 3 x5,6_3 - p5 + p6 >= 0
 R619: 247 x5,6_3 - p5 + p6 <= 250
 R620: - 4 x5,6_4 - p5 + p6 >= 0
 R621: 247 x5,6_4 - p5 + p6 <= 251
 R622: - 5 x5,6_5 - p5 + p6 >= 0
 R623: 247 x5,6_5 - p5 + p6 <= 252
 R624: - 9 x5,6_9 - p5 + p6 >= 0
 R625: 247 x5,6_9 - p5 + p6 <= 256
 R626: - 14 x5,6_14 - p5 + p6 >= 0
 R627: 247 x5,6_14 - p5 + p6 <= 261
 R628: - 17 x5,6_17 - p5 + p6 >= 0
 R629: 247 x5,6_17 - p5 + p6 <= 264
 R630: - 19 x5,6_19 - p5 + p6 >= 0
 R631: 247 x5,6_19 - p5 + p6 <= 266
 R632: - 21 x5,6_21 - p5 + p6 >= 0
 R633: 247 x5,6_21 - p5 + p6 <= 268
 R634: - 27 x5,6_27 - p5 + p6 >= 0
 R635: 247 x5,6_27 - p5 + p6 <= 274
 R636: - 28 x5,6_28 - p5 + p6 >= 0
 R637: 247 x5,6_28 - p5 + p6 <= 275
 R638: - 30 x5,6_30 - p5 + p6 >= 0
 R639: 247 x5,6_30 - p5 + p6 <= 277
 R640: - 34 x5,6_34 - p5 + p6 >= 0
 R641: 247 x5,6_34 - p5 + p6 <= 281
 R642: - 35 x5,6_35 - p5 + p6 >= 0
 R643: 247 x5,6_35 - p5 + p6 <= 282
Bounds
Binaries
 x0,1_1 x0,1_3 x0,1_4 x0,1_5 x0,1_9 x0,1_14 x0,1_17 x0,1_19 x0,1_21 x0,1_27
 x0,1_28 x0,1_30 x0,1_34 x0,1_35 x0,2_1 x0,2_3 x0,2_4 x0,2_5 x0,2_9 x0,2_14
 x0,2_17 x0,2_19 x0,2_21 x0,2_27 x0,2_28 x0,2_30 x0,2_34 x0,2_35 x0,3_1
 x0,3_3 x0,3_4 x0,3_5 x0,3_9 x0,3_14 x0,3_17 x0,3_19 x0,3_21 x0,3_27
 x0,3_28 x0,3_30 x0,3_34 x0,3_35 x0,4_1 x0,4_3 x0,4_4 x0,4_5 x0,4_9 x0,4_14
 x0,4_17 x0,4_19 x0,4_21 x0,4_27 x0,4_28 x0,4_30 x0,4_34 x0,4_35 x0,5_1
 x0,5_3 x0,5_4 x0,5_5 x0,5_9 x0,5_14 x0,5_17 x0,5_19 x0,5_21 x0,5_27
 x0,5_28 x0,5_30 x0,5_34 x0,5_35 x0,6_1 x0,6_3 x0,6_4 x0,6_5 x0,6_9 x0,6_14
 x0,6_17 x0,6_19 x0,6_21 x0,6_27 x0,6_28 x0,6_30 x0,6_34 x0,6_35 x1,2_1
 x1,2_3 x1,2_4 x1,2_5 x1,2_9 x1,2_14 x1,2_17 x1,2_19 x1,2_21 x1,2_27
 x1,2_28 x1,2_30 x1,2_34 x1,2_35 x1,3_1 x1,3_3 x1,3_4 x1,3_5 x1,3_9 x1,3_14
 x1,3_17 x1,3_19 x1,3_21 x1,3_27 x1,3_28 x1,3_30 x1,3_34 x1,3_35 x1,4_1
 x1,4_3 x1,4_4 x1,4_5 x1,4_9 x1,4_14 x1,4_17 x1,4_19 x1,4_21 x1,4_27
 x1,4_28 x1,4_30 x1,4_34 x1,4_35 x1,5_1 x1,5_3 x1,5_4 x1,5_5 x1,5_9 x1,5_14
 x1,5_17 x1,5_19 x1,5_21 x1,5_27 x1,5_28 x1,5_30 x1,5_34 x1,5_35 x1,6_1
 x1,6_3 x1,6_4 x1,6_5 x1,6_9 x1,6_14 x1,6_17 x1,6_19 x1,6_21 x1,6_27
 x1,6_28 x1,6_30 x1,6_34 x1,6_35 x2,3_1 x2,3_3 x2,3_4 x2,3_5 x2,3_9 x2,3_14
 x2,3_17 x2,3_19 x2,3_21 x2,3_27 x2,3_28 x2,3_30 x2,3_34 x2,3_35 x2,4_1
 x2,4_3 x2,4_4 x2,4_5 x2,4_9 x2,4_14 x2,4_17 x2,4_19 x2,4_21 x2,4_27
 x2,4_28 x2,4_30 x2,4_34 x2,4_35 x2,5_1 x2,5_3 x2,5_4 x2,5_5 x2,5_9 x2,5_14
 x2,5_17 x2,5_19 x2,5_21 x2,5_27 x2,5_28 x2,5_30 x2,5_34 x2,5_35 x2,6_1
 x2,6_3 x2,6_4 x2,6_5 x2,6_9 x2,6_14 x2,6_17 x2,6_19 x2,6_21 x2,6_27
 x2,6_28 x2,6_30 x2,6_34 x2,6_35 x3,4_1 x3,4_3 x3,4_4 x3,4_5 x3,4_9 x3,4_14
 x3,4_17 x3,4_19 x3,4_21 x3,4_27 x3,4_28 x3,4_30 x3,4_34 x3,4_35 x3,5_1
 x3,5_3 x3,5_4 x3,5_5 x3,5_9 x3,5_14 x3,5_17 x3,5_19 x3,5_21 x3,5_27
 x3,5_28 x3,5_30 x3,5_34 x3,5_35 x3,6_1 x3,6_3 x3,6_4 x3,6_5 x3,6_9 x3,6_14
 x3,6_17 x3,6_19 x3,6_21 x3,6_27 x3,6_28 x3,6_30 x3,6_34 x3,6_35 x4,5_1
 x4,5_3 x4,5_4 x4,5_5 x4,5_9 x4,5_14 x4,5_17 x4,5_19 x4,5_21 x4,5_27
 x4,5_28 x4,5_30 x4,5_34 x4,5_35 x4,6_1 x4,6_3 x4,6_4 x4,6_5 x4,6_9 x4,6_14
 x4,6_17 x4,6_19 x4,6_21 x4,6_27 x4,6_28 x4,6_30 x4,6_34 x4,6_35 x5,6_1
 x5,6_3 x5,6_4 x5,6_5 x5,6_9 x5,6_14 x5,6_17 x5,6_19 x5,6_21 x5,6_27
 x5,6_28 x5,6_30 x5,6_34 x5,6_35
Generals
 p0 p1 p2 p3 p4 p5 p6
End
